Code 2534
Dimension, Median
   128       16     
 Facility, Client, Transportation Cost
     1        1           2
     1        2           3
     1        3           0
     1        5           4
     1        9           3
     1       17           4
     1       33           1
     1       65           4
     2        1           2
     2        2           1
     2        4           4
     2        6           3
     2       10           0
     2       18           3
     2       34           1
     2       66           3
     3        1           4
     3        3           1
     3        4           4
     3        7           3
     3       11           3
     3       19           4
     3       35           1
     3       67           2
     4        2           1
     4        3           0
     4        4           2
     4        8           3
     4       12           4
     4       20           2
     4       36           2
     4       68           2
     5        1           0
     5        5           4
     5        6           0
     5        7           3
     5       13           4
     5       21           1
     5       37           1
     5       69           1
     6        2           4
     6        5           3
     6        6           1
     6        8           1
     6       14           4
     6       22           3
     6       38           1
     6       70           3
     7        3           3
     7        5           0
     7        7           3
     7        8           2
     7       15           2
     7       23           0
     7       39           4
     7       71           3
     8        4           3
     8        6           2
     8        7           1
     8        8           2
     8       16           0
     8       24           0
     8       40           0
     8       72           2
     9        1           2
     9        9           2
     9       10           0
     9       11           1
     9       13           0
     9       25           0
     9       41           0
     9       73           0
    10        2           4
    10        9           0
    10       10           2
    10       12           4
    10       14           0
    10       26           3
    10       42           2
    10       74           1
    11        3           3
    11        9           0
    11       11           0
    11       12           2
    11       15           3
    11       27           4
    11       43           0
    11       75           2
    12        4           1
    12       10           2
    12       11           2
    12       12           2
    12       16           2
    12       28           0
    12       44           2
    12       76           4
    13        5           2
    13        9           1
    13       13           3
    13       14           4
    13       15           4
    13       29           2
    13       45           0
    13       77           3
    14        6           0
    14       10           4
    14       13           4
    14       14           2
    14       16           3
    14       30           4
    14       46           4
    14       78           3
    15        7           0
    15       11           2
    15       13           4
    15       15           1
    15       16           3
    15       31           0
    15       47           4
    15       79           1
    16        8           4
    16       12           0
    16       14           4
    16       15           1
    16       16           0
    16       32           2
    16       48           3
    16       80           0
    17        1           0
    17       17           3
    17       18           4
    17       19           3
    17       21           2
    17       25           0
    17       49           4
    17       81           2
    18        2           3
    18       17           3
    18       18           3
    18       20           3
    18       22           0
    18       26           0
    18       50           4
    18       82           1
    19        3           0
    19       17           2
    19       19           0
    19       20           0
    19       23           2
    19       27           1
    19       51           0
    19       83           3
    20        4           3
    20       18           3
    20       19           0
    20       20           3
    20       24           0
    20       28           0
    20       52           4
    20       84           1
    21        5           4
    21       17           2
    21       21           0
    21       22           4
    21       23           4
    21       29           2
    21       53           4
    21       85           2
    22        6           1
    22       18           0
    22       21           3
    22       22           3
    22       24           0
    22       30           1
    22       54           0
    22       86           3
    23        7           2
    23       19           3
    23       21           1
    23       23           0
    23       24           0
    23       31           2
    23       55           0
    23       87           0
    24        8           2
    24       20           4
    24       22           2
    24       23           4
    24       24           1
    24       32           2
    24       56           2
    24       88           1
    25        9           2
    25       17           0
    25       25           0
    25       26           1
    25       27           3
    25       29           2
    25       57           3
    25       89           3
    26       10           0
    26       18           0
    26       25           4
    26       26           4
    26       28           4
    26       30           4
    26       58           4
    26       90           2
    27       11           0
    27       19           3
    27       25           2
    27       27           3
    27       28           0
    27       31           0
    27       59           2
    27       91           3
    28       12           0
    28       20           3
    28       26           2
    28       27           2
    28       28           2
    28       32           3
    28       60           1
    28       92           0
    29       13           3
    29       21           4
    29       25           4
    29       29           3
    29       30           0
    29       31           4
    29       61           0
    29       93           1
    30       14           4
    30       22           1
    30       26           4
    30       29           0
    30       30           4
    30       32           3
    30       62           3
    30       94           0
    31       15           0
    31       23           3
    31       27           2
    31       29           1
    31       31           2
    31       32           0
    31       63           0
    31       95           2
    32       16           1
    32       24           1
    32       28           4
    32       30           0
    32       31           0
    32       32           1
    32       64           2
    32       96           2
    33        1           0
    33       33           0
    33       34           3
    33       35           2
    33       37           1
    33       41           2
    33       49           2
    33       97           4
    34        2           2
    34       33           4
    34       34           1
    34       36           0
    34       38           0
    34       42           3
    34       50           2
    34       98           1
    35        3           1
    35       33           0
    35       35           1
    35       36           3
    35       39           3
    35       43           0
    35       51           1
    35       99           2
    36        4           4
    36       34           0
    36       35           3
    36       36           4
    36       40           3
    36       44           2
    36       52           3
    36      100           1
    37        5           1
    37       33           2
    37       37           1
    37       38           0
    37       39           4
    37       45           0
    37       53           4
    37      101           1
    38        6           1
    38       34           0
    38       37           0
    38       38           3
    38       40           3
    38       46           1
    38       54           3
    38      102           3
    39        7           1
    39       35           1
    39       37           1
    39       39           3
    39       40           0
    39       47           1
    39       55           3
    39      103           4
    40        8           3
    40       36           3
    40       38           3
    40       39           3
    40       40           4
    40       48           3
    40       56           3
    40      104           4
    41        9           3
    41       33           3
    41       41           2
    41       42           1
    41       43           2
    41       45           1
    41       57           1
    41      105           0
    42       10           2
    42       34           3
    42       41           4
    42       42           1
    42       44           2
    42       46           2
    42       58           1
    42      106           0
    43       11           0
    43       35           1
    43       41           0
    43       43           0
    43       44           3
    43       47           4
    43       59           2
    43      107           1
    44       12           1
    44       36           2
    44       42           2
    44       43           4
    44       44           3
    44       48           1
    44       60           1
    44      108           0
    45       13           4
    45       37           1
    45       41           4
    45       45           2
    45       46           0
    45       47           0
    45       61           3
    45      109           4
    46       14           2
    46       38           0
    46       42           1
    46       45           3
    46       46           4
    46       48           1
    46       62           0
    46      110           3
    47       15           0
    47       39           0
    47       43           3
    47       45           4
    47       47           1
    47       48           0
    47       63           1
    47      111           2
    48       16           1
    48       40           1
    48       44           0
    48       46           1
    48       47           0
    48       48           3
    48       64           1
    48      112           3
    49       17           1
    49       33           0
    49       49           4
    49       50           0
    49       51           2
    49       53           1
    49       57           4
    49      113           4
    50       18           4
    50       34           0
    50       49           2
    50       50           3
    50       52           1
    50       54           4
    50       58           2
    50      114           4
    51       19           0
    51       35           1
    51       49           1
    51       51           4
    51       52           1
    51       55           3
    51       59           3
    51      115           0
    52       20           2
    52       36           3
    52       50           1
    52       51           4
    52       52           2
    52       56           1
    52       60           3
    52      116           1
    53       21           1
    53       37           2
    53       49           3
    53       53           3
    53       54           2
    53       55           4
    53       61           1
    53      117           3
    54       22           0
    54       38           2
    54       50           2
    54       53           1
    54       54           2
    54       56           3
    54       62           2
    54      118           3
    55       23           3
    55       39           2
    55       51           4
    55       53           2
    55       55           0
    55       56           3
    55       63           0
    55      119           2
    56       24           4
    56       40           3
    56       52           3
    56       54           3
    56       55           2
    56       56           2
    56       64           0
    56      120           0
    57       25           0
    57       41           0
    57       49           2
    57       57           4
    57       58           4
    57       59           2
    57       61           3
    57      121           0
    58       26           4
    58       42           2
    58       50           1
    58       57           3
    58       58           0
    58       60           3
    58       62           2
    58      122           1
    59       27           2
    59       43           1
    59       51           4
    59       57           0
    59       59           0
    59       60           3
    59       63           4
    59      123           4
    60       28           3
    60       44           0
    60       52           1
    60       58           0
    60       59           2
    60       60           3
    60       64           1
    60      124           0
    61       29           0
    61       45           4
    61       53           0
    61       57           1
    61       61           0
    61       62           0
    61       63           0
    61      125           1
    62       30           3
    62       46           2
    62       54           4
    62       58           1
    62       61           2
    62       62           0
    62       64           4
    62      126           4
    63       31           4
    63       47           1
    63       55           1
    63       59           2
    63       61           0
    63       63           3
    63       64           0
    63      127           0
    64       32           3
    64       48           2
    64       56           3
    64       60           1
    64       62           3
    64       63           3
    64       64           3
    64      128           4
    65        1           2
    65       65           2
    65       66           0
    65       67           1
    65       69           3
    65       73           2
    65       81           0
    65       97           2
    66        2           4
    66       65           1
    66       66           3
    66       68           1
    66       70           2
    66       74           0
    66       82           0
    66       98           0
    67        3           2
    67       65           3
    67       67           0
    67       68           1
    67       71           2
    67       75           3
    67       83           1
    67       99           3
    68        4           3
    68       66           0
    68       67           4
    68       68           3
    68       72           4
    68       76           1
    68       84           1
    68      100           4
    69        5           2
    69       65           1
    69       69           0
    69       70           3
    69       71           3
    69       77           4
    69       85           3
    69      101           0
    70        6           3
    70       66           3
    70       69           0
    70       70           2
    70       72           1
    70       78           4
    70       86           3
    70      102           2
    71        7           3
    71       67           1
    71       69           2
    71       71           4
    71       72           0
    71       79           2
    71       87           0
    71      103           4
    72        8           3
    72       68           0
    72       70           2
    72       71           1
    72       72           4
    72       80           3
    72       88           3
    72      104           1
    73        9           1
    73       65           0
    73       73           2
    73       74           3
    73       75           2
    73       77           4
    73       89           0
    73      105           1
    74       10           2
    74       66           0
    74       73           2
    74       74           2
    74       76           3
    74       78           4
    74       90           4
    74      106           1
    75       11           3
    75       67           0
    75       73           4
    75       75           2
    75       76           2
    75       79           4
    75       91           3
    75      107           4
    76       12           2
    76       68           2
    76       74           1
    76       75           2
    76       76           3
    76       80           4
    76       92           4
    76      108           4
    77       13           4
    77       69           1
    77       73           3
    77       77           3
    77       78           3
    77       79           4
    77       93           0
    77      109           2
    78       14           3
    78       70           4
    78       74           0
    78       77           0
    78       78           1
    78       80           1
    78       94           0
    78      110           1
    79       15           0
    79       71           1
    79       75           4
    79       77           1
    79       79           0
    79       80           1
    79       95           0
    79      111           1
    80       16           3
    80       72           2
    80       76           4
    80       78           2
    80       79           2
    80       80           3
    80       96           3
    80      112           0
    81       17           2
    81       65           4
    81       81           1
    81       82           2
    81       83           4
    81       85           0
    81       89           1
    81      113           0
    82       18           2
    82       66           3
    82       81           2
    82       82           1
    82       84           2
    82       86           0
    82       90           2
    82      114           3
    83       19           4
    83       67           2
    83       81           0
    83       83           3
    83       84           4
    83       87           1
    83       91           4
    83      115           3
    84       20           0
    84       68           0
    84       82           2
    84       83           1
    84       84           0
    84       88           1
    84       92           2
    84      116           1
    85       21           4
    85       69           4
    85       81           2
    85       85           2
    85       86           0
    85       87           1
    85       93           2
    85      117           4
    86       22           4
    86       70           4
    86       82           3
    86       85           1
    86       86           1
    86       88           0
    86       94           0
    86      118           1
    87       23           2
    87       71           1
    87       83           1
    87       85           4
    87       87           4
    87       88           0
    87       95           4
    87      119           4
    88       24           2
    88       72           4
    88       84           2
    88       86           4
    88       87           1
    88       88           4
    88       96           0
    88      120           4
    89       25           0
    89       73           4
    89       81           4
    89       89           2
    89       90           2
    89       91           4
    89       93           1
    89      121           3
    90       26           1
    90       74           1
    90       82           1
    90       89           0
    90       90           3
    90       92           1
    90       94           4
    90      122           3
    91       27           0
    91       75           0
    91       83           3
    91       89           4
    91       91           2
    91       92           1
    91       95           3
    91      123           1
    92       28           1
    92       76           0
    92       84           2
    92       90           3
    92       91           4
    92       92           1
    92       96           3
    92      124           4
    93       29           1
    93       77           1
    93       85           0
    93       89           2
    93       93           1
    93       94           1
    93       95           4
    93      125           0
    94       30           2
    94       78           4
    94       86           2
    94       90           3
    94       93           3
    94       94           4
    94       96           4
    94      126           2
    95       31           3
    95       79           3
    95       87           2
    95       91           0
    95       93           3
    95       95           2
    95       96           3
    95      127           1
    96       32           1
    96       80           1
    96       88           3
    96       92           2
    96       94           0
    96       95           3
    96       96           4
    96      128           2
    97       33           4
    97       65           2
    97       97           0
    97       98           2
    97       99           4
    97      101           0
    97      105           1
    97      113           4
    98       34           4
    98       66           2
    98       97           3
    98       98           0
    98      100           3
    98      102           3
    98      106           4
    98      114           0
    99       35           2
    99       67           0
    99       97           3
    99       99           4
    99      100           3
    99      103           1
    99      107           3
    99      115           1
   100       36           2
   100       68           0
   100       98           2
   100       99           2
   100      100           4
   100      104           1
   100      108           4
   100      116           2
   101       37           0
   101       69           0
   101       97           2
   101      101           4
   101      102           1
   101      103           4
   101      109           1
   101      117           1
   102       38           4
   102       70           4
   102       98           4
   102      101           1
   102      102           2
   102      104           2
   102      110           1
   102      118           1
   103       39           3
   103       71           4
   103       99           0
   103      101           3
   103      103           3
   103      104           4
   103      111           4
   103      119           1
   104       40           0
   104       72           2
   104      100           2
   104      102           4
   104      103           0
   104      104           4
   104      112           4
   104      120           3
   105       41           2
   105       73           1
   105       97           4
   105      105           4
   105      106           0
   105      107           0
   105      109           1
   105      121           0
   106       42           1
   106       74           2
   106       98           4
   106      105           4
   106      106           4
   106      108           0
   106      110           1
   106      122           4
   107       43           4
   107       75           2
   107       99           1
   107      105           1
   107      107           1
   107      108           0
   107      111           1
   107      123           2
   108       44           4
   108       76           3
   108      100           4
   108      106           0
   108      107           3
   108      108           4
   108      112           3
   108      124           4
   109       45           3
   109       77           4
   109      101           2
   109      105           4
   109      109           4
   109      110           1
   109      111           2
   109      125           4
   110       46           0
   110       78           0
   110      102           3
   110      106           0
   110      109           2
   110      110           3
   110      112           1
   110      126           1
   111       47           1
   111       79           4
   111      103           4
   111      107           2
   111      109           1
   111      111           2
   111      112           2
   111      127           4
   112       48           2
   112       80           0
   112      104           0
   112      108           3
   112      110           2
   112      111           1
   112      112           4
   112      128           3
   113       49           3
   113       81           4
   113       97           3
   113      113           4
   113      114           3
   113      115           1
   113      117           4
   113      121           2
   114       50           4
   114       82           2
   114       98           2
   114      113           4
   114      114           4
   114      116           2
   114      118           2
   114      122           1
   115       51           4
   115       83           4
   115       99           1
   115      113           1
   115      115           2
   115      116           4
   115      119           1
   115      123           0
   116       52           1
   116       84           4
   116      100           3
   116      114           1
   116      115           3
   116      116           2
   116      120           0
   116      124           3
   117       53           4
   117       85           4
   117      101           0
   117      113           2
   117      117           1
   117      118           2
   117      119           1
   117      125           2
   118       54           4
   118       86           4
   118      102           0
   118      114           3
   118      117           2
   118      118           2
   118      120           2
   118      126           1
   119       55           1
   119       87           1
   119      103           2
   119      115           3
   119      117           0
   119      119           1
   119      120           3
   119      127           4
   120       56           2
   120       88           2
   120      104           4
   120      116           3
   120      118           0
   120      119           2
   120      120           4
   120      128           0
   121       57           4
   121       89           4
   121      105           4
   121      113           2
   121      121           0
   121      122           3
   121      123           4
   121      125           1
   122       58           1
   122       90           3
   122      106           1
   122      114           2
   122      121           3
   122      122           2
   122      124           3
   122      126           3
   123       59           2
   123       91           3
   123      107           2
   123      115           4
   123      121           2
   123      123           0
   123      124           4
   123      127           4
   124       60           2
   124       92           3
   124      108           3
   124      116           0
   124      122           3
   124      123           1
   124      124           2
   124      128           2
   125       61           1
   125       93           4
   125      109           2
   125      117           0
   125      121           2
   125      125           1
   125      126           2
   125      127           4
   126       62           2
   126       94           2
   126      110           1
   126      118           2
   126      122           2
   126      125           1
   126      126           4
   126      128           3
   127       63           0
   127       95           4
   127      111           0
   127      119           2
   127      123           1
   127      125           1
   127      127           2
   127      128           4
   128       64           1
   128       96           4
   128      112           1
   128      120           1
   128      124           4
   128      126           2
   128      127           2
   128      128           2
